p cnf 10 36
9 -8 -4 0
6 4 -2 0
3 2 4 0
10 -8 -1 0
6 9 7 0
4 5 6 0
8 -6 9 0
5 -6 1 0
3 10 -2 0
4 -10 -1 0
-8 -6 -9 0
-6 -3 8 0
-9 -4 -7 0
10 5 4 0
9 -3 2 0
10 7 9 0
-1 -5 3 0
6 4 9 0
10 4 2 0
-1 6 7 0
1 8 10 0
-6 -8 -1 0
-10 9 -7 0
-2 -6 -5 0
10 -8 -1 0
1 7 -4 0
1 10 2 0
-2 -9 6 0
-7 3 -2 0
5 -9 1 0
-5 -1 -9 0
-6 1 -10 0
-9 1 -10 0
-4 -2 -10 0
3 6 10 0
4 -8 -5 0
